\ENCODING=ISO-8859-1
\Problem name: IloCplex

Minimize
 obj1: 80 x1 + 90 x2 + 90 x3 - 70 x4 + 80 x5 + 90 x6 + 90 x7 - 70 x8 + 80 x9
       + 90 x10 + 90 x11 - 70 x12 + 80 x13 + 90 x14 + 90 x15 - 70 x16 + 80 x17
       + 90 x18 + 90 x19 - 70 x20 + 80 x21 + 90 x22 + 90 x23 - 70 x24 + 80 x25
       + 90 x26 + 110 x27 - 90 x28 + 80 x29 + 90 x30 + 110 x31 - 90 x32
       + 80 x33 + 90 x34 + 110 x35 - 90 x36 + 80 x37 + 90 x38 + 110 x39
       - 90 x40 + 80 x41 + 90 x42 + 110 x43 - 90 x44 + 80 x45 + 90 x46
       + 125 x47 - 105 x48 + 80 x49 + 90 x50 + 125 x51 - 105 x52 + 80 x53
       + 90 x54 + 125 x55 - 105 x56 + 80 x57 + 90 x58 + 125 x59 - 105 x60
       + 80 x61 + 90 x62 + 125 x63 - 105 x64 + 80 x65 + 90 x66 + 125 x67
       - 105 x68 + 80 x69 + 90 x70 + 125 x71 - 105 x72 + 80 x73 + 90 x74
       + 110 x75 - 90 x76 + 80 x77 + 90 x78 + 110 x79 - 90 x80 + 80 x81
       + 90 x82 + 110 x83 - 90 x84 + 80 x85 + 90 x86 + 110 x87 - 90 x88
       + 80 x89 + 90 x90 + 110 x91 - 90 x92 + 80 x93 + 90 x94 + 110 x95
       - 90 x96 + 24
Subject To
 c1:   x1 >= 0
 c2:   x1 <= 80
 c3:   x2 >= 0
 c4:   x2 <= 90
 c5:   x97 >= 0
 c6:   x97 <= 200
 c7:   x97 - 0.949999988079071 x98 + 1.05263159215615 x99  = 0.200000002980232
 c8:   x1 + x2 + x3 - x4 - x98 + x99  = 169
 c9:   x5 >= 0
 c10:  x5 <= 80
 c11:  x6 >= 0
 c12:  x6 <= 90
 c13:  x100 >= 0
 c14:  x100 <= 200
 c15:  - x97 + x100 - 0.949999988079071 x101 + 1.05263159215615 x102  = 0
 c16:  x5 + x6 + x7 - x8 - x101 + x102  = 175
 c17:  x9 >= 0
 c18:  x9 <= 80
 c19:  x10 >= 0
 c20:  x10 <= 90
 c21:  x103 >= 0
 c22:  x103 <= 200
 c23:  - x100 + x103 - 0.949999988079071 x104 + 1.05263159215615 x105  = 0
 c24:  x9 + x10 + x11 - x12 - x104 + x105  = 179
 c25:  x13 >= 0
 c26:  x13 <= 80
 c27:  x14 >= 0
 c28:  x14 <= 90
 c29:  x106 >= 0
 c30:  x106 <= 200
 c31:  - x103 + x106 - 0.949999988079071 x107 + 1.05263159215615 x108  = 0
 c32:  x13 + x14 + x15 - x16 - x107 + x108  = 171
 c33:  x17 >= 0
 c34:  x17 <= 80
 c35:  x18 >= 0
 c36:  x18 <= 90
 c37:  x109 >= 0
 c38:  x109 <= 200
 c39:  - x106 + x109 - 0.949999988079071 x110 + 1.05263159215615 x111  = 0
 c40:  x17 + x18 + x19 - x20 - x110 + x111  = 181
 c41:  x21 >= 0
 c42:  x21 <= 80
 c43:  x22 >= 0
 c44:  x22 <= 90
 c45:  x112 >= 0
 c46:  x112 <= 200
 c47:  - x109 + x112 - 0.949999988079071 x113 + 1.05263159215615 x114  = 0
 c48:  x21 + x22 + x23 - x24 - x113 + x114  = 172
 c49:  x25 >= 0
 c50:  x25 <= 80
 c51:  x26 >= 0
 c52:  x26 <= 90
 c53:  x115 >= 0
 c54:  x115 <= 200
 c55:  - x112 + x115 - 0.949999988079071 x116 + 1.05263159215615 x117  = 0
 c56:  x25 + x26 + x27 - x28 - x116 + x117  = 270
 c57:  x29 >= 0
 c58:  x29 <= 80
 c59:  x30 >= 0
 c60:  x30 <= 90
 c61:  x118 >= 0
 c62:  x118 <= 200
 c63:  - x115 + x118 - 0.949999988079071 x119 + 1.05263159215615 x120  = 0
 c64:  x29 + x30 + x31 - x32 - x119 + x120  = 244
 c65:  x33 >= 0
 c66:  x33 <= 80
 c67:  x34 >= 0
 c68:  x34 <= 90
 c69:  x121 >= 0
 c70:  x121 <= 200
 c71:  - x118 + x121 - 0.949999988079071 x122 + 1.05263159215615 x123  = 0
 c72:  x33 + x34 + x35 - x36 - x122 + x123  = 243
 c73:  x37 >= 0
 c74:  x37 <= 80
 c75:  x38 >= 0
 c76:  x38 <= 90
 c77:  x124 >= 0
 c78:  x124 <= 200
 c79:  - x121 + x124 - 0.949999988079071 x125 + 1.05263159215615 x126  = 0
 c80:  x37 + x38 + x39 - x40 - x125 + x126  = 241
 c81:  x41 >= 0
 c82:  x41 <= 80
 c83:  x42 >= 0
 c84:  x42 <= 90
 c85:  x127 >= 0
 c86:  x127 <= 200
 c87:  - x124 + x127 - 0.949999988079071 x128 + 1.05263159215615 x129  = 0
 c88:  x41 + x42 + x43 - x44 - x128 + x129  = 147
 c89:  x45 >= 0
 c90:  x45 <= 80
 c91:  x46 >= 0
 c92:  x46 <= 90
 c93:  x130 >= 0
 c94:  x130 <= 200
 c95:  - x127 + x130 - 0.949999988079071 x131 + 1.05263159215615 x132  = 0
 c96:  x45 + x46 + x47 - x48 - x131 + x132  = 102
 c97:  x49 >= 0
 c98:  x49 <= 80
 c99:  x50 >= 0
 c100: x50 <= 90
 c101: x133 >= 0
 c102: x133 <= 200
 c103: - x130 + x133 - 0.949999988079071 x134 + 1.05263159215615 x135  = 0
 c104: x49 + x50 + x51 - x52 - x134 + x135  = 95
 c105: x53 >= 0
 c106: x53 <= 80
 c107: x54 >= 0
 c108: x54 <= 90
 c109: x136 >= 0
 c110: x136 <= 200
 c111: - x133 + x136 - 0.949999988079071 x137 + 1.05263159215615 x138  = 0
 c112: x53 + x54 + x55 - x56 - x137 + x138  = 92
 c113: x57 >= 0
 c114: x57 <= 80
 c115: x58 >= 0
 c116: x58 <= 90
 c117: x139 >= 0
 c118: x139 <= 200
 c119: - x136 + x139 - 0.949999988079071 x140 + 1.05263159215615 x141  = 0
 c120: x57 + x58 + x59 - x60 - x140 + x141  = 182
 c121: x61 >= 0
 c122: x61 <= 80
 c123: x62 >= 0
 c124: x62 <= 90
 c125: x142 >= 0
 c126: x142 <= 200
 c127: - x139 + x142 - 0.949999988079071 x143 + 1.05263159215615 x144  = 0
 c128: x61 + x62 + x63 - x64 - x143 + x144  = 198
 c129: x65 >= 0
 c130: x65 <= 80
 c131: x66 >= 0
 c132: x66 <= 90
 c133: x145 >= 0
 c134: x145 <= 200
 c135: - x142 + x145 - 0.949999988079071 x146 + 1.05263159215615 x147  = 0
 c136: x65 + x66 + x67 - x68 - x146 + x147  = 211
 c137: x69 >= 0
 c138: x69 <= 80
 c139: x70 >= 0
 c140: x70 <= 90
 c141: x148 >= 0
 c142: x148 <= 200
 c143: - x145 + x148 - 0.949999988079071 x149 + 1.05263159215615 x150  = 0
 c144: x69 + x70 + x71 - x72 - x149 + x150  = 251
 c145: x73 >= 0
 c146: x73 <= 80
 c147: x74 >= 0
 c148: x74 <= 90
 c149: x151 >= 0
 c150: x151 <= 200
 c151: - x148 + x151 - 0.949999988079071 x152 + 1.05263159215615 x153  = 0
 c152: x73 + x74 + x75 - x76 - x152 + x153  = 284
 c153: x77 >= 0
 c154: x77 <= 80
 c155: x78 >= 0
 c156: x78 <= 90
 c157: x154 >= 0
 c158: x154 <= 200
 c159: - x151 + x154 - 0.949999988079071 x155 + 1.05263159215615 x156  = 0
 c160: x77 + x78 + x79 - x80 - x155 + x156  = 167
 c161: x81 >= 0
 c162: x81 <= 80
 c163: x82 >= 0
 c164: x82 <= 90
 c165: x157 >= 0
 c166: x157 <= 200
 c167: - x154 + x157 - 0.949999988079071 x158 + 1.05263159215615 x159  = 0
 c168: x81 + x82 + x83 - x84 - x158 + x159  = 128
 c169: x85 >= 0
 c170: x85 <= 80
 c171: x86 >= 0
 c172: x86 <= 90
 c173: x160 >= 0
 c174: x160 <= 200
 c175: - x157 + x160 - 0.949999988079071 x161 + 1.05263159215615 x162  = 0
 c176: x85 + x86 + x87 - x88 - x161 + x162  = 134
 c177: x89 >= 0
 c178: x89 <= 80
 c179: x90 >= 0
 c180: x90 <= 90
 c181: x163 >= 0
 c182: x163 <= 200
 c183: - x160 + x163 - 0.949999988079071 x164 + 1.05263159215615 x165  = 0
 c184: x89 + x90 + x91 - x92 - x164 + x165  = 144
 c185: x93 >= 0
 c186: x93 <= 80
 c187: x94 >= 0
 c188: x94 <= 90
 c189: x166 >= 0
 c190: x166 <= 200
 c191: - x163 + x166 - 0.949999988079071 x167 + 1.05263159215615 x168  = 0
 c192: x93 + x94 + x95 - x96 - x167 + x168  = 150
Bounds
 0 <= x1 <= 80
 0 <= x2 <= 100
 0 <= x5 <= 80
 0 <= x6 <= 100
 0 <= x9 <= 80
 0 <= x10 <= 100
 0 <= x13 <= 80
 0 <= x14 <= 100
 0 <= x17 <= 80
 0 <= x18 <= 100
 0 <= x21 <= 80
 0 <= x22 <= 100
 0 <= x25 <= 80
 0 <= x26 <= 100
 0 <= x29 <= 80
 0 <= x30 <= 100
 0 <= x33 <= 80
 0 <= x34 <= 100
 0 <= x37 <= 80
 0 <= x38 <= 100
 0 <= x41 <= 80
 0 <= x42 <= 100
 0 <= x45 <= 80
 0 <= x46 <= 100
 0 <= x49 <= 80
 0 <= x50 <= 100
 0 <= x53 <= 80
 0 <= x54 <= 100
 0 <= x57 <= 80
 0 <= x58 <= 100
 0 <= x61 <= 80
 0 <= x62 <= 100
 0 <= x65 <= 80
 0 <= x66 <= 100
 0 <= x69 <= 80
 0 <= x70 <= 100
 0 <= x73 <= 80
 0 <= x74 <= 100
 0 <= x77 <= 80
 0 <= x78 <= 100
 0 <= x81 <= 80
 0 <= x82 <= 100
 0 <= x85 <= 80
 0 <= x86 <= 100
 0 <= x89 <= 80
 0 <= x90 <= 100
 0 <= x93 <= 80
 0 <= x94 <= 100
 0 <= x97 <= 200
 0 <= x98 <= 100
 0 <= x99 <= 100
 0 <= x100 <= 200
 0 <= x101 <= 100
 0 <= x102 <= 100
 0 <= x103 <= 200
 0 <= x104 <= 100
 0 <= x105 <= 100
 0 <= x106 <= 200
 0 <= x107 <= 100
 0 <= x108 <= 100
 0 <= x109 <= 200
 0 <= x110 <= 100
 0 <= x111 <= 100
 0 <= x112 <= 200
 0 <= x113 <= 100
 0 <= x114 <= 100
 0 <= x115 <= 200
 0 <= x116 <= 100
 0 <= x117 <= 100
 0 <= x118 <= 200
 0 <= x119 <= 100
 0 <= x120 <= 100
 0 <= x121 <= 200
 0 <= x122 <= 100
 0 <= x123 <= 100
 0 <= x124 <= 200
 0 <= x125 <= 100
 0 <= x126 <= 100
 0 <= x127 <= 200
 0 <= x128 <= 100
 0 <= x129 <= 100
 0 <= x130 <= 200
 0 <= x131 <= 100
 0 <= x132 <= 100
 0 <= x133 <= 200
 0 <= x134 <= 100
 0 <= x135 <= 100
 0 <= x136 <= 200
 0 <= x137 <= 100
 0 <= x138 <= 100
 0 <= x139 <= 200
 0 <= x140 <= 100
 0 <= x141 <= 100
 0 <= x142 <= 200
 0 <= x143 <= 100
 0 <= x144 <= 100
 0 <= x145 <= 200
 0 <= x146 <= 100
 0 <= x147 <= 100
 0 <= x148 <= 200
 0 <= x149 <= 100
 0 <= x150 <= 100
 0 <= x151 <= 200
 0 <= x152 <= 100
 0 <= x153 <= 100
 0 <= x154 <= 200
 0 <= x155 <= 100
 0 <= x156 <= 100
 0 <= x157 <= 200
 0 <= x158 <= 100
 0 <= x159 <= 100
 0 <= x160 <= 200
 0 <= x161 <= 100
 0 <= x162 <= 100
 0 <= x163 <= 200
 0 <= x164 <= 100
 0 <= x165 <= 100
 0 <= x166 <= 200
 0 <= x167 <= 100
 0 <= x168 <= 100
End
